100
128
23
41
36
63
30
36
2
16
2
13
41
43
12
55
6
13
60
11
47
24
37
33
6
64
26
13
34
47
41
6
32
13
37
8
26
2
47
20
32
58
9
61
44
22
60
15
43
22
28
56
3
13
7
60
26
16
17
46
30
20
13
3
45
16
26
39
43
38
27
51
20
54
18
7
35
29
31
32
41
17
20
27
30
34
44
20
45
55
56
26
30
40
64
30
42
32
30
23
8
5